num_iter = 10000
conv_tol = 1e-10
conv_window = 5
write_hr = .true.
guiding_centres = .true.
gamma_only = .false.
dis_froz_max = 11.0
dis_win_max = 16.5
bands_plot = .true.

begin projections
  f=0.25,0.25,0.25:sp3
end projections
num_wann = 4
num_bands = 16
exclude_bands = 1-4
mp_grid = 8 8 8

begin kpoints
  0.0 0.0 0.0 0.001953125
  0.0 0.0 0.125 0.001953125
  0.0 0.0 0.25 0.001953125
  0.0 0.0 0.375 0.001953125
  0.0 0.0 -0.5 0.001953125
  0.0 0.0 -0.375 0.001953125
  0.0 0.0 -0.25 0.001953125
  0.0 0.0 -0.125 0.001953125
  0.0 0.125 0.0 0.001953125
  0.0 0.125 0.125 0.001953125
  0.0 0.125 0.25 0.001953125
  0.0 0.125 0.375 0.001953125
  0.0 0.125 -0.5 0.001953125
  0.0 0.125 -0.375 0.001953125
  0.0 0.125 -0.25 0.001953125
  0.0 0.125 -0.125 0.001953125
  0.0 0.25 0.0 0.001953125
  0.0 0.25 0.125 0.001953125
  0.0 0.25 0.25 0.001953125
  0.0 0.25 0.375 0.001953125
  0.0 0.25 -0.5 0.001953125
  0.0 0.25 -0.375 0.001953125
  0.0 0.25 -0.25 0.001953125
  0.0 0.25 -0.125 0.001953125
  0.0 0.375 0.0 0.001953125
  0.0 0.375 0.125 0.001953125
  0.0 0.375 0.25 0.001953125
  0.0 0.375 0.375 0.001953125
  0.0 0.375 -0.5 0.001953125
  0.0 0.375 -0.375 0.001953125
  0.0 0.375 -0.25 0.001953125
  0.0 0.375 -0.125 0.001953125
  0.0 -0.5 0.0 0.001953125
  0.0 -0.5 0.125 0.001953125
  0.0 -0.5 0.25 0.001953125
  0.0 -0.5 0.375 0.001953125
  0.0 -0.5 -0.5 0.001953125
  0.0 -0.5 -0.375 0.001953125
  0.0 -0.5 -0.25 0.001953125
  0.0 -0.5 -0.125 0.001953125
  0.0 -0.375 0.0 0.001953125
  0.0 -0.375 0.125 0.001953125
  0.0 -0.375 0.25 0.001953125
  0.0 -0.375 0.375 0.001953125
  0.0 -0.375 -0.5 0.001953125
  0.0 -0.375 -0.375 0.001953125
  0.0 -0.375 -0.25 0.001953125
  0.0 -0.375 -0.125 0.001953125
  0.0 -0.25 0.0 0.001953125
  0.0 -0.25 0.125 0.001953125
  0.0 -0.25 0.25 0.001953125
  0.0 -0.25 0.375 0.001953125
  0.0 -0.25 -0.5 0.001953125
  0.0 -0.25 -0.375 0.001953125
  0.0 -0.25 -0.25 0.001953125
  0.0 -0.25 -0.125 0.001953125
  0.0 -0.125 0.0 0.001953125
  0.0 -0.125 0.125 0.001953125
  0.0 -0.125 0.25 0.001953125
  0.0 -0.125 0.375 0.001953125
  0.0 -0.125 -0.5 0.001953125
  0.0 -0.125 -0.375 0.001953125
  0.0 -0.125 -0.25 0.001953125
  0.0 -0.125 -0.125 0.001953125
  0.125 0.0 0.0 0.001953125
  0.125 0.0 0.125 0.001953125
  0.125 0.0 0.25 0.001953125
  0.125 0.0 0.375 0.001953125
  0.125 0.0 -0.5 0.001953125
  0.125 0.0 -0.375 0.001953125
  0.125 0.0 -0.25 0.001953125
  0.125 0.0 -0.125 0.001953125
  0.125 0.125 0.0 0.001953125
  0.125 0.125 0.125 0.001953125
  0.125 0.125 0.25 0.001953125
  0.125 0.125 0.375 0.001953125
  0.125 0.125 -0.5 0.001953125
  0.125 0.125 -0.375 0.001953125
  0.125 0.125 -0.25 0.001953125
  0.125 0.125 -0.125 0.001953125
  0.125 0.25 0.0 0.001953125
  0.125 0.25 0.125 0.001953125
  0.125 0.25 0.25 0.001953125
  0.125 0.25 0.375 0.001953125
  0.125 0.25 -0.5 0.001953125
  0.125 0.25 -0.375 0.001953125
  0.125 0.25 -0.25 0.001953125
  0.125 0.25 -0.125 0.001953125
  0.125 0.375 0.0 0.001953125
  0.125 0.375 0.125 0.001953125
  0.125 0.375 0.25 0.001953125
  0.125 0.375 0.375 0.001953125
  0.125 0.375 -0.5 0.001953125
  0.125 0.375 -0.375 0.001953125
  0.125 0.375 -0.25 0.001953125
  0.125 0.375 -0.125 0.001953125
  0.125 -0.5 0.0 0.001953125
  0.125 -0.5 0.125 0.001953125
  0.125 -0.5 0.25 0.001953125
  0.125 -0.5 0.375 0.001953125
  0.125 -0.5 -0.5 0.001953125
  0.125 -0.5 -0.375 0.001953125
  0.125 -0.5 -0.25 0.001953125
  0.125 -0.5 -0.125 0.001953125
  0.125 -0.375 0.0 0.001953125
  0.125 -0.375 0.125 0.001953125
  0.125 -0.375 0.25 0.001953125
  0.125 -0.375 0.375 0.001953125
  0.125 -0.375 -0.5 0.001953125
  0.125 -0.375 -0.375 0.001953125
  0.125 -0.375 -0.25 0.001953125
  0.125 -0.375 -0.125 0.001953125
  0.125 -0.25 0.0 0.001953125
  0.125 -0.25 0.125 0.001953125
  0.125 -0.25 0.25 0.001953125
  0.125 -0.25 0.375 0.001953125
  0.125 -0.25 -0.5 0.001953125
  0.125 -0.25 -0.375 0.001953125
  0.125 -0.25 -0.25 0.001953125
  0.125 -0.25 -0.125 0.001953125
  0.125 -0.125 0.0 0.001953125
  0.125 -0.125 0.125 0.001953125
  0.125 -0.125 0.25 0.001953125
  0.125 -0.125 0.375 0.001953125
  0.125 -0.125 -0.5 0.001953125
  0.125 -0.125 -0.375 0.001953125
  0.125 -0.125 -0.25 0.001953125
  0.125 -0.125 -0.125 0.001953125
  0.25 0.0 0.0 0.001953125
  0.25 0.0 0.125 0.001953125
  0.25 0.0 0.25 0.001953125
  0.25 0.0 0.375 0.001953125
  0.25 0.0 -0.5 0.001953125
  0.25 0.0 -0.375 0.001953125
  0.25 0.0 -0.25 0.001953125
  0.25 0.0 -0.125 0.001953125
  0.25 0.125 0.0 0.001953125
  0.25 0.125 0.125 0.001953125
  0.25 0.125 0.25 0.001953125
  0.25 0.125 0.375 0.001953125
  0.25 0.125 -0.5 0.001953125
  0.25 0.125 -0.375 0.001953125
  0.25 0.125 -0.25 0.001953125
  0.25 0.125 -0.125 0.001953125
  0.25 0.25 0.0 0.001953125
  0.25 0.25 0.125 0.001953125
  0.25 0.25 0.25 0.001953125
  0.25 0.25 0.375 0.001953125
  0.25 0.25 -0.5 0.001953125
  0.25 0.25 -0.375 0.001953125
  0.25 0.25 -0.25 0.001953125
  0.25 0.25 -0.125 0.001953125
  0.25 0.375 0.0 0.001953125
  0.25 0.375 0.125 0.001953125
  0.25 0.375 0.25 0.001953125
  0.25 0.375 0.375 0.001953125
  0.25 0.375 -0.5 0.001953125
  0.25 0.375 -0.375 0.001953125
  0.25 0.375 -0.25 0.001953125
  0.25 0.375 -0.125 0.001953125
  0.25 -0.5 0.0 0.001953125
  0.25 -0.5 0.125 0.001953125
  0.25 -0.5 0.25 0.001953125
  0.25 -0.5 0.375 0.001953125
  0.25 -0.5 -0.5 0.001953125
  0.25 -0.5 -0.375 0.001953125
  0.25 -0.5 -0.25 0.001953125
  0.25 -0.5 -0.125 0.001953125
  0.25 -0.375 0.0 0.001953125
  0.25 -0.375 0.125 0.001953125
  0.25 -0.375 0.25 0.001953125
  0.25 -0.375 0.375 0.001953125
  0.25 -0.375 -0.5 0.001953125
  0.25 -0.375 -0.375 0.001953125
  0.25 -0.375 -0.25 0.001953125
  0.25 -0.375 -0.125 0.001953125
  0.25 -0.25 0.0 0.001953125
  0.25 -0.25 0.125 0.001953125
  0.25 -0.25 0.25 0.001953125
  0.25 -0.25 0.375 0.001953125
  0.25 -0.25 -0.5 0.001953125
  0.25 -0.25 -0.375 0.001953125
  0.25 -0.25 -0.25 0.001953125
  0.25 -0.25 -0.125 0.001953125
  0.25 -0.125 0.0 0.001953125
  0.25 -0.125 0.125 0.001953125
  0.25 -0.125 0.25 0.001953125
  0.25 -0.125 0.375 0.001953125
  0.25 -0.125 -0.5 0.001953125
  0.25 -0.125 -0.375 0.001953125
  0.25 -0.125 -0.25 0.001953125
  0.25 -0.125 -0.125 0.001953125
  0.375 0.0 0.0 0.001953125
  0.375 0.0 0.125 0.001953125
  0.375 0.0 0.25 0.001953125
  0.375 0.0 0.375 0.001953125
  0.375 0.0 -0.5 0.001953125
  0.375 0.0 -0.375 0.001953125
  0.375 0.0 -0.25 0.001953125
  0.375 0.0 -0.125 0.001953125
  0.375 0.125 0.0 0.001953125
  0.375 0.125 0.125 0.001953125
  0.375 0.125 0.25 0.001953125
  0.375 0.125 0.375 0.001953125
  0.375 0.125 -0.5 0.001953125
  0.375 0.125 -0.375 0.001953125
  0.375 0.125 -0.25 0.001953125
  0.375 0.125 -0.125 0.001953125
  0.375 0.25 0.0 0.001953125
  0.375 0.25 0.125 0.001953125
  0.375 0.25 0.25 0.001953125
  0.375 0.25 0.375 0.001953125
  0.375 0.25 -0.5 0.001953125
  0.375 0.25 -0.375 0.001953125
  0.375 0.25 -0.25 0.001953125
  0.375 0.25 -0.125 0.001953125
  0.375 0.375 0.0 0.001953125
  0.375 0.375 0.125 0.001953125
  0.375 0.375 0.25 0.001953125
  0.375 0.375 0.375 0.001953125
  0.375 0.375 -0.5 0.001953125
  0.375 0.375 -0.375 0.001953125
  0.375 0.375 -0.25 0.001953125
  0.375 0.375 -0.125 0.001953125
  0.375 -0.5 0.0 0.001953125
  0.375 -0.5 0.125 0.001953125
  0.375 -0.5 0.25 0.001953125
  0.375 -0.5 0.375 0.001953125
  0.375 -0.5 -0.5 0.001953125
  0.375 -0.5 -0.375 0.001953125
  0.375 -0.5 -0.25 0.001953125
  0.375 -0.5 -0.125 0.001953125
  0.375 -0.375 0.0 0.001953125
  0.375 -0.375 0.125 0.001953125
  0.375 -0.375 0.25 0.001953125
  0.375 -0.375 0.375 0.001953125
  0.375 -0.375 -0.5 0.001953125
  0.375 -0.375 -0.375 0.001953125
  0.375 -0.375 -0.25 0.001953125
  0.375 -0.375 -0.125 0.001953125
  0.375 -0.25 0.0 0.001953125
  0.375 -0.25 0.125 0.001953125
  0.375 -0.25 0.25 0.001953125
  0.375 -0.25 0.375 0.001953125
  0.375 -0.25 -0.5 0.001953125
  0.375 -0.25 -0.375 0.001953125
  0.375 -0.25 -0.25 0.001953125
  0.375 -0.25 -0.125 0.001953125
  0.375 -0.125 0.0 0.001953125
  0.375 -0.125 0.125 0.001953125
  0.375 -0.125 0.25 0.001953125
  0.375 -0.125 0.375 0.001953125
  0.375 -0.125 -0.5 0.001953125
  0.375 -0.125 -0.375 0.001953125
  0.375 -0.125 -0.25 0.001953125
  0.375 -0.125 -0.125 0.001953125
  -0.5 0.0 0.0 0.001953125
  -0.5 0.0 0.125 0.001953125
  -0.5 0.0 0.25 0.001953125
  -0.5 0.0 0.375 0.001953125
  -0.5 0.0 -0.5 0.001953125
  -0.5 0.0 -0.375 0.001953125
  -0.5 0.0 -0.25 0.001953125
  -0.5 0.0 -0.125 0.001953125
  -0.5 0.125 0.0 0.001953125
  -0.5 0.125 0.125 0.001953125
  -0.5 0.125 0.25 0.001953125
  -0.5 0.125 0.375 0.001953125
  -0.5 0.125 -0.5 0.001953125
  -0.5 0.125 -0.375 0.001953125
  -0.5 0.125 -0.25 0.001953125
  -0.5 0.125 -0.125 0.001953125
  -0.5 0.25 0.0 0.001953125
  -0.5 0.25 0.125 0.001953125
  -0.5 0.25 0.25 0.001953125
  -0.5 0.25 0.375 0.001953125
  -0.5 0.25 -0.5 0.001953125
  -0.5 0.25 -0.375 0.001953125
  -0.5 0.25 -0.25 0.001953125
  -0.5 0.25 -0.125 0.001953125
  -0.5 0.375 0.0 0.001953125
  -0.5 0.375 0.125 0.001953125
  -0.5 0.375 0.25 0.001953125
  -0.5 0.375 0.375 0.001953125
  -0.5 0.375 -0.5 0.001953125
  -0.5 0.375 -0.375 0.001953125
  -0.5 0.375 -0.25 0.001953125
  -0.5 0.375 -0.125 0.001953125
  -0.5 -0.5 0.0 0.001953125
  -0.5 -0.5 0.125 0.001953125
  -0.5 -0.5 0.25 0.001953125
  -0.5 -0.5 0.375 0.001953125
  -0.5 -0.5 -0.5 0.001953125
  -0.5 -0.5 -0.375 0.001953125
  -0.5 -0.5 -0.25 0.001953125
  -0.5 -0.5 -0.125 0.001953125
  -0.5 -0.375 0.0 0.001953125
  -0.5 -0.375 0.125 0.001953125
  -0.5 -0.375 0.25 0.001953125
  -0.5 -0.375 0.375 0.001953125
  -0.5 -0.375 -0.5 0.001953125
  -0.5 -0.375 -0.375 0.001953125
  -0.5 -0.375 -0.25 0.001953125
  -0.5 -0.375 -0.125 0.001953125
  -0.5 -0.25 0.0 0.001953125
  -0.5 -0.25 0.125 0.001953125
  -0.5 -0.25 0.25 0.001953125
  -0.5 -0.25 0.375 0.001953125
  -0.5 -0.25 -0.5 0.001953125
  -0.5 -0.25 -0.375 0.001953125
  -0.5 -0.25 -0.25 0.001953125
  -0.5 -0.25 -0.125 0.001953125
  -0.5 -0.125 0.0 0.001953125
  -0.5 -0.125 0.125 0.001953125
  -0.5 -0.125 0.25 0.001953125
  -0.5 -0.125 0.375 0.001953125
  -0.5 -0.125 -0.5 0.001953125
  -0.5 -0.125 -0.375 0.001953125
  -0.5 -0.125 -0.25 0.001953125
  -0.5 -0.125 -0.125 0.001953125
  -0.375 0.0 0.0 0.001953125
  -0.375 0.0 0.125 0.001953125
  -0.375 0.0 0.25 0.001953125
  -0.375 0.0 0.375 0.001953125
  -0.375 0.0 -0.5 0.001953125
  -0.375 0.0 -0.375 0.001953125
  -0.375 0.0 -0.25 0.001953125
  -0.375 0.0 -0.125 0.001953125
  -0.375 0.125 0.0 0.001953125
  -0.375 0.125 0.125 0.001953125
  -0.375 0.125 0.25 0.001953125
  -0.375 0.125 0.375 0.001953125
  -0.375 0.125 -0.5 0.001953125
  -0.375 0.125 -0.375 0.001953125
  -0.375 0.125 -0.25 0.001953125
  -0.375 0.125 -0.125 0.001953125
  -0.375 0.25 0.0 0.001953125
  -0.375 0.25 0.125 0.001953125
  -0.375 0.25 0.25 0.001953125
  -0.375 0.25 0.375 0.001953125
  -0.375 0.25 -0.5 0.001953125
  -0.375 0.25 -0.375 0.001953125
  -0.375 0.25 -0.25 0.001953125
  -0.375 0.25 -0.125 0.001953125
  -0.375 0.375 0.0 0.001953125
  -0.375 0.375 0.125 0.001953125
  -0.375 0.375 0.25 0.001953125
  -0.375 0.375 0.375 0.001953125
  -0.375 0.375 -0.5 0.001953125
  -0.375 0.375 -0.375 0.001953125
  -0.375 0.375 -0.25 0.001953125
  -0.375 0.375 -0.125 0.001953125
  -0.375 -0.5 0.0 0.001953125
  -0.375 -0.5 0.125 0.001953125
  -0.375 -0.5 0.25 0.001953125
  -0.375 -0.5 0.375 0.001953125
  -0.375 -0.5 -0.5 0.001953125
  -0.375 -0.5 -0.375 0.001953125
  -0.375 -0.5 -0.25 0.001953125
  -0.375 -0.5 -0.125 0.001953125
  -0.375 -0.375 0.0 0.001953125
  -0.375 -0.375 0.125 0.001953125
  -0.375 -0.375 0.25 0.001953125
  -0.375 -0.375 0.375 0.001953125
  -0.375 -0.375 -0.5 0.001953125
  -0.375 -0.375 -0.375 0.001953125
  -0.375 -0.375 -0.25 0.001953125
  -0.375 -0.375 -0.125 0.001953125
  -0.375 -0.25 0.0 0.001953125
  -0.375 -0.25 0.125 0.001953125
  -0.375 -0.25 0.25 0.001953125
  -0.375 -0.25 0.375 0.001953125
  -0.375 -0.25 -0.5 0.001953125
  -0.375 -0.25 -0.375 0.001953125
  -0.375 -0.25 -0.25 0.001953125
  -0.375 -0.25 -0.125 0.001953125
  -0.375 -0.125 0.0 0.001953125
  -0.375 -0.125 0.125 0.001953125
  -0.375 -0.125 0.25 0.001953125
  -0.375 -0.125 0.375 0.001953125
  -0.375 -0.125 -0.5 0.001953125
  -0.375 -0.125 -0.375 0.001953125
  -0.375 -0.125 -0.25 0.001953125
  -0.375 -0.125 -0.125 0.001953125
  -0.25 0.0 0.0 0.001953125
  -0.25 0.0 0.125 0.001953125
  -0.25 0.0 0.25 0.001953125
  -0.25 0.0 0.375 0.001953125
  -0.25 0.0 -0.5 0.001953125
  -0.25 0.0 -0.375 0.001953125
  -0.25 0.0 -0.25 0.001953125
  -0.25 0.0 -0.125 0.001953125
  -0.25 0.125 0.0 0.001953125
  -0.25 0.125 0.125 0.001953125
  -0.25 0.125 0.25 0.001953125
  -0.25 0.125 0.375 0.001953125
  -0.25 0.125 -0.5 0.001953125
  -0.25 0.125 -0.375 0.001953125
  -0.25 0.125 -0.25 0.001953125
  -0.25 0.125 -0.125 0.001953125
  -0.25 0.25 0.0 0.001953125
  -0.25 0.25 0.125 0.001953125
  -0.25 0.25 0.25 0.001953125
  -0.25 0.25 0.375 0.001953125
  -0.25 0.25 -0.5 0.001953125
  -0.25 0.25 -0.375 0.001953125
  -0.25 0.25 -0.25 0.001953125
  -0.25 0.25 -0.125 0.001953125
  -0.25 0.375 0.0 0.001953125
  -0.25 0.375 0.125 0.001953125
  -0.25 0.375 0.25 0.001953125
  -0.25 0.375 0.375 0.001953125
  -0.25 0.375 -0.5 0.001953125
  -0.25 0.375 -0.375 0.001953125
  -0.25 0.375 -0.25 0.001953125
  -0.25 0.375 -0.125 0.001953125
  -0.25 -0.5 0.0 0.001953125
  -0.25 -0.5 0.125 0.001953125
  -0.25 -0.5 0.25 0.001953125
  -0.25 -0.5 0.375 0.001953125
  -0.25 -0.5 -0.5 0.001953125
  -0.25 -0.5 -0.375 0.001953125
  -0.25 -0.5 -0.25 0.001953125
  -0.25 -0.5 -0.125 0.001953125
  -0.25 -0.375 0.0 0.001953125
  -0.25 -0.375 0.125 0.001953125
  -0.25 -0.375 0.25 0.001953125
  -0.25 -0.375 0.375 0.001953125
  -0.25 -0.375 -0.5 0.001953125
  -0.25 -0.375 -0.375 0.001953125
  -0.25 -0.375 -0.25 0.001953125
  -0.25 -0.375 -0.125 0.001953125
  -0.25 -0.25 0.0 0.001953125
  -0.25 -0.25 0.125 0.001953125
  -0.25 -0.25 0.25 0.001953125
  -0.25 -0.25 0.375 0.001953125
  -0.25 -0.25 -0.5 0.001953125
  -0.25 -0.25 -0.375 0.001953125
  -0.25 -0.25 -0.25 0.001953125
  -0.25 -0.25 -0.125 0.001953125
  -0.25 -0.125 0.0 0.001953125
  -0.25 -0.125 0.125 0.001953125
  -0.25 -0.125 0.25 0.001953125
  -0.25 -0.125 0.375 0.001953125
  -0.25 -0.125 -0.5 0.001953125
  -0.25 -0.125 -0.375 0.001953125
  -0.25 -0.125 -0.25 0.001953125
  -0.25 -0.125 -0.125 0.001953125
  -0.125 0.0 0.0 0.001953125
  -0.125 0.0 0.125 0.001953125
  -0.125 0.0 0.25 0.001953125
  -0.125 0.0 0.375 0.001953125
  -0.125 0.0 -0.5 0.001953125
  -0.125 0.0 -0.375 0.001953125
  -0.125 0.0 -0.25 0.001953125
  -0.125 0.0 -0.125 0.001953125
  -0.125 0.125 0.0 0.001953125
  -0.125 0.125 0.125 0.001953125
  -0.125 0.125 0.25 0.001953125
  -0.125 0.125 0.375 0.001953125
  -0.125 0.125 -0.5 0.001953125
  -0.125 0.125 -0.375 0.001953125
  -0.125 0.125 -0.25 0.001953125
  -0.125 0.125 -0.125 0.001953125
  -0.125 0.25 0.0 0.001953125
  -0.125 0.25 0.125 0.001953125
  -0.125 0.25 0.25 0.001953125
  -0.125 0.25 0.375 0.001953125
  -0.125 0.25 -0.5 0.001953125
  -0.125 0.25 -0.375 0.001953125
  -0.125 0.25 -0.25 0.001953125
  -0.125 0.25 -0.125 0.001953125
  -0.125 0.375 0.0 0.001953125
  -0.125 0.375 0.125 0.001953125
  -0.125 0.375 0.25 0.001953125
  -0.125 0.375 0.375 0.001953125
  -0.125 0.375 -0.5 0.001953125
  -0.125 0.375 -0.375 0.001953125
  -0.125 0.375 -0.25 0.001953125
  -0.125 0.375 -0.125 0.001953125
  -0.125 -0.5 0.0 0.001953125
  -0.125 -0.5 0.125 0.001953125
  -0.125 -0.5 0.25 0.001953125
  -0.125 -0.5 0.375 0.001953125
  -0.125 -0.5 -0.5 0.001953125
  -0.125 -0.5 -0.375 0.001953125
  -0.125 -0.5 -0.25 0.001953125
  -0.125 -0.5 -0.125 0.001953125
  -0.125 -0.375 0.0 0.001953125
  -0.125 -0.375 0.125 0.001953125
  -0.125 -0.375 0.25 0.001953125
  -0.125 -0.375 0.375 0.001953125
  -0.125 -0.375 -0.5 0.001953125
  -0.125 -0.375 -0.375 0.001953125
  -0.125 -0.375 -0.25 0.001953125
  -0.125 -0.375 -0.125 0.001953125
  -0.125 -0.25 0.0 0.001953125
  -0.125 -0.25 0.125 0.001953125
  -0.125 -0.25 0.25 0.001953125
  -0.125 -0.25 0.375 0.001953125
  -0.125 -0.25 -0.5 0.001953125
  -0.125 -0.25 -0.375 0.001953125
  -0.125 -0.25 -0.25 0.001953125
  -0.125 -0.25 -0.125 0.001953125
  -0.125 -0.125 0.0 0.001953125
  -0.125 -0.125 0.125 0.001953125
  -0.125 -0.125 0.25 0.001953125
  -0.125 -0.125 0.375 0.001953125
  -0.125 -0.125 -0.5 0.001953125
  -0.125 -0.125 -0.375 0.001953125
  -0.125 -0.125 -0.25 0.001953125
  -0.125 -0.125 -0.125 0.001953125
end kpoints

begin kpoint_path
   G  0.00000   0.00000   0.00000 X  0.50000   0.00000   0.50000
   X  0.50000   0.00000   0.50000 W  0.50000   0.25000   0.75000
   W  0.50000   0.25000   0.75000 K  0.37500   0.37500   0.75000
   K  0.37500   0.37500   0.75000 G  0.00000   0.00000   0.00000
   G  0.00000   0.00000   0.00000 L  0.50000   0.50000   0.50000
   L  0.50000   0.50000   0.50000 U  0.62500   0.25000   0.62500
   U  0.62500   0.25000   0.62500 W  0.50000   0.25000   0.75000
   W  0.50000   0.25000   0.75000 L  0.50000   0.50000   0.50000
   L  0.50000   0.50000   0.50000 K  0.37500   0.37500   0.75000
   U  0.62500   0.25000   0.62500 X  0.50000   0.00000   0.50000
end kpoint_path
dis_num_iter = 5000

begin atoms_frac
  Si 0.0 0.0 0.0
  Si 0.24999999999999994 0.24999999999999994 0.24999999999999994
end atoms_frac

begin unit_cell_cart
  ang
  -2.7152611851241253 0.0 2.7152611851241253
  0.0 2.7152611851241253 2.7152611851241253
  -2.7152611851241253 2.7152611851241253 0.0
end unit_cell_cart
