&CONTROL
   calculation      = 'cp'
   verbosity        = 'low'
   restart_mode     = 'from_scratch'
   iprint           = 1
   outdir           = '/scratch/elinscott/materials_cloud_archive/ozone/ki_ks/TMP-CP/'
   prefix           = 'kc'
   disk_io          = 'high'
   pseudo_dir       = '/home/elinscott/code/koopmans/src/koopmans/pseudopotentials/sg15_v1.2/pbe/'
   ndr              = 60
   ndw              = 99
   write_hr         = .false.
   print_real_space_density = .false.
/
&SYSTEM
   ibrav            = 0
   nbnd             = 10
   tot_charge       = 0
   tot_magnetization = 0
   ecutwfc          = 65.0
   nspin            = 2
   do_orbdep        = .true.
   fixed_state      = .false.
   do_ee            = .true.
   nelec            = 18
   nelup            = 9
   neldw            = 9
   do_wf_cmplx      = .true.
   starting_magnetization(1) = 0.0
   ntyp             = 1
   nat              = 3
/
&ELECTRONS
   conv_thr         = 1.8000000000000002e-08
   ortho_para       = 1
   electron_dynamics = 'cg'
   passop           = 2.0
   do_outerloop     = .false.
   do_outerloop_empty = .false.
/
&IONS
   ion_dynamics     = 'none'
   ion_nstepe       = 5
   ion_radius(1)    = 1.0
   ion_radius(2)    = 1.0
   ion_radius(3)    = 1.0
   ion_radius(4)    = 1.0
/
&CELL
/
&EE
   which_compensation = 'tcc'
/
&NKSIC
   do_innerloop     = .false.
   odd_nkscalfact   = .true.
   odd_nkscalfact_empty = .true.
   which_orbdep     = 'nki'
   innerloop_cg_nreset = 20
   innerloop_cg_nsd = 2
   innerloop_init_n = 3
   hartree_only_sic = .false.
   esic_conv_thr    = 1.8000000000000002e-08
   do_innerloop_cg  = .true.
   innerloop_nmax   = 100
   do_innerloop_empty = .false.
   do_bare_eigs     = .true.
/

ATOMIC_SPECIES
O  15.999 O_ONCV_PBE-1.2.upf

CELL_PARAMETERS angstrom
14.17380000000000 0.00000000000000 0.00000000000000
0.00000000000000 12.00000000000000 0.00000000000000
0.00000000000000 0.00000000000000 12.66000000000000

ATOMIC_POSITIONS angstrom
O  7.0869000000 6.0000000000 5.8900000000
O  8.1738000000 6.0000000000 6.5500000000
O  6.0000000000 6.0000000000 6.5500000000

