&projwfc
   outdir           = '/scratch/elinscott/materials_cloud_archive/zno/coarse_grid/TMP'
   prefix           = 'kc_bands'
   deltae           = 0.01
   degauss          = 0.01
   filpdos          = 'zno'
/
