&CONTROL
   calculation      = 'cp'
   verbosity        = 'low'
   restart_mode     = 'from_scratch'
   iprint           = 1
   outdir           = '/scratch/elinscott/materials_cloud_archive/si/TMP-CP/'
   prefix           = 'kc'
   disk_io          = 'high'
   pseudo_dir       = '/home/elinscott/code/koopmans/src/koopmans/pseudopotentials/sg15_v1.2/pbe/'
   ndr              = 50
   ndw              = 50
   write_hr         = .false.
   print_real_space_density = .false.
/
&SYSTEM
   ibrav            = 2
   celldm(1)        = 41.04880017145515
   tot_charge       = 0
   tot_magnetization = 0
   ecutwfc          = 60.0
   nspin            = 2
   do_orbdep        = .false.
   fixed_state      = .false.
   do_ee            = .true.
   nelec            = 512
   nelup            = 256
   neldw            = 256
   do_wf_cmplx      = .true.
   starting_magnetization(1) = 0.0
   ntyp             = 1
   nat              = 128
/
&ELECTRONS
   conv_thr         = 5.12e-07
   ortho_para       = 1
   electron_dynamics = 'cg'
   passop           = 2.0
   do_outerloop     = .false.
/
&IONS
   ion_dynamics     = 'none'
   ion_nstepe       = 5
   ion_radius(1)    = 1.0
   ion_radius(2)    = 1.0
   ion_radius(3)    = 1.0
   ion_radius(4)    = 1.0
/
&CELL
/
&EE
   which_compensation = 'none'
/
&NKSIC
   do_innerloop     = .false.
   innerloop_cg_nreset = 20
   innerloop_cg_nsd = 2
   innerloop_init_n = 3
   hartree_only_sic = .false.
   esic_conv_thr    = 5.12e-07
   do_innerloop_cg  = .true.
   innerloop_nmax   = 100
/

ATOMIC_SPECIES
Si  28.085 Si_ONCV_PBE-1.2.upf

ATOMIC_POSITIONS crystal
Si  -0.0000000000 0.0000000000 -0.0000000000
Si  0.0625000000 0.0625000000 0.0625000000
Si  -0.0000000000 0.0000000000 0.2500000000
Si  0.0625000000 0.0625000000 0.3125000000
Si  -0.0000000000 -0.0000000000 0.5000000000
Si  0.0625000000 0.0625000000 0.5625000000
Si  -0.0000000000 -0.0000000000 0.7500000000
Si  0.0625000000 0.0625000000 0.8125000000
Si  -0.0000000000 0.2500000000 -0.0000000000
Si  0.0625000000 0.3125000000 0.0625000000
Si  0.0000000000 0.2500000000 0.2500000000
Si  0.0625000000 0.3125000000 0.3125000000
Si  -0.0000000000 0.2500000000 0.5000000000
Si  0.0625000000 0.3125000000 0.5625000000
Si  -0.0000000000 0.2500000000 0.7500000000
Si  0.0625000000 0.3125000000 0.8125000000
Si  -0.0000000000 0.5000000000 -0.0000000000
Si  0.0625000000 0.5625000000 0.0625000000
Si  0.0000000000 0.5000000000 0.2500000000
Si  0.0625000000 0.5625000000 0.3125000000
Si  0.0000000000 0.5000000000 0.5000000000
Si  0.0625000000 0.5625000000 0.5625000000
Si  -0.0000000000 0.5000000000 0.7500000000
Si  0.0625000000 0.5625000000 0.8125000000
Si  -0.0000000000 0.7500000000 -0.0000000000
Si  0.0625000000 0.8125000000 0.0625000000
Si  -0.0000000000 0.7500000000 0.2500000000
Si  0.0625000000 0.8125000000 0.3125000000
Si  -0.0000000000 0.7500000000 0.5000000000
Si  0.0625000000 0.8125000000 0.5625000000
Si  -0.0000000000 0.7500000000 0.7500000000
Si  0.0625000000 0.8125000000 0.8125000000
Si  0.2500000000 0.0000000000 -0.0000000000
Si  0.3125000000 0.0625000000 0.0625000000
Si  0.2500000000 0.0000000000 0.2500000000
Si  0.3125000000 0.0625000000 0.3125000000
Si  0.2500000000 -0.0000000000 0.5000000000
Si  0.3125000000 0.0625000000 0.5625000000
Si  0.2500000000 -0.0000000000 0.7500000000
Si  0.3125000000 0.0625000000 0.8125000000
Si  0.2500000000 0.2500000000 -0.0000000000
Si  0.3125000000 0.3125000000 0.0625000000
Si  0.2500000000 0.2500000000 0.2500000000
Si  0.3125000000 0.3125000000 0.3125000000
Si  0.2500000000 0.2500000000 0.5000000000
Si  0.3125000000 0.3125000000 0.5625000000
Si  0.2500000000 0.2500000000 0.7500000000
Si  0.3125000000 0.3125000000 0.8125000000
Si  0.2500000000 0.5000000000 -0.0000000000
Si  0.3125000000 0.5625000000 0.0625000000
Si  0.2500000000 0.5000000000 0.2500000000
Si  0.3125000000 0.5625000000 0.3125000000
Si  0.2500000000 0.5000000000 0.5000000000
Si  0.3125000000 0.5625000000 0.5625000000
Si  0.2500000000 0.5000000000 0.7500000000
Si  0.3125000000 0.5625000000 0.8125000000
Si  0.2500000000 0.7500000000 -0.0000000000
Si  0.3125000000 0.8125000000 0.0625000000
Si  0.2500000000 0.7500000000 0.2500000000
Si  0.3125000000 0.8125000000 0.3125000000
Si  0.2500000000 0.7500000000 0.5000000000
Si  0.3125000000 0.8125000000 0.5625000000
Si  0.2500000000 0.7500000000 0.7500000000
Si  0.3125000000 0.8125000000 0.8125000000
Si  0.5000000000 0.0000000000 -0.0000000000
Si  0.5625000000 0.0625000000 0.0625000000
Si  0.5000000000 0.0000000000 0.2500000000
Si  0.5625000000 0.0625000000 0.3125000000
Si  0.5000000000 0.0000000000 0.5000000000
Si  0.5625000000 0.0625000000 0.5625000000
Si  0.5000000000 -0.0000000000 0.7500000000
Si  0.5625000000 0.0625000000 0.8125000000
Si  0.5000000000 0.2500000000 -0.0000000000
Si  0.5625000000 0.3125000000 0.0625000000
Si  0.5000000000 0.2500000000 0.2500000000
Si  0.5625000000 0.3125000000 0.3125000000
Si  0.5000000000 0.2500000000 0.5000000000
Si  0.5625000000 0.3125000000 0.5625000000
Si  0.5000000000 0.2500000000 0.7500000000
Si  0.5625000000 0.3125000000 0.8125000000
Si  0.5000000000 0.5000000000 -0.0000000000
Si  0.5625000000 0.5625000000 0.0625000000
Si  0.5000000000 0.5000000000 0.2500000000
Si  0.5625000000 0.5625000000 0.3125000000
Si  0.5000000000 0.5000000000 0.5000000000
Si  0.5625000000 0.5625000000 0.5625000000
Si  0.5000000000 0.5000000000 0.7500000000
Si  0.5625000000 0.5625000000 0.8125000000
Si  0.5000000000 0.7500000000 -0.0000000000
Si  0.5625000000 0.8125000000 0.0625000000
Si  0.5000000000 0.7500000000 0.2500000000
Si  0.5625000000 0.8125000000 0.3125000000
Si  0.5000000000 0.7500000000 0.5000000000
Si  0.5625000000 0.8125000000 0.5625000000
Si  0.5000000000 0.7500000000 0.7500000000
Si  0.5625000000 0.8125000000 0.8125000000
Si  0.7500000000 0.0000000000 -0.0000000000
Si  0.8125000000 0.0625000000 0.0625000000
Si  0.7500000000 -0.0000000000 0.2500000000
Si  0.8125000000 0.0625000000 0.3125000000
Si  0.7500000000 -0.0000000000 0.5000000000
Si  0.8125000000 0.0625000000 0.5625000000
Si  0.7500000000 -0.0000000000 0.7500000000
Si  0.8125000000 0.0625000000 0.8125000000
Si  0.7500000000 0.2500000000 -0.0000000000
Si  0.8125000000 0.3125000000 0.0625000000
Si  0.7500000000 0.2500000000 0.2500000000
Si  0.8125000000 0.3125000000 0.3125000000
Si  0.7500000000 0.2500000000 0.5000000000
Si  0.8125000000 0.3125000000 0.5625000000
Si  0.7500000000 0.2500000000 0.7500000000
Si  0.8125000000 0.3125000000 0.8125000000
Si  0.7500000000 0.5000000000 -0.0000000000
Si  0.8125000000 0.5625000000 0.0625000000
Si  0.7500000000 0.5000000000 0.2500000000
Si  0.8125000000 0.5625000000 0.3125000000
Si  0.7500000000 0.5000000000 0.5000000000
Si  0.8125000000 0.5625000000 0.5625000000
Si  0.7500000000 0.5000000000 0.7500000000
Si  0.8125000000 0.5625000000 0.8125000000
Si  0.7500000000 0.7500000000 -0.0000000000
Si  0.8125000000 0.8125000000 0.0625000000
Si  0.7500000000 0.7500000000 0.2500000000
Si  0.8125000000 0.8125000000 0.3125000000
Si  0.7500000000 0.7500000000 0.5000000000
Si  0.8125000000 0.8125000000 0.5625000000
Si  0.7500000000 0.7500000000 0.7500000000
Si  0.8125000000 0.8125000000 0.8125000000

