num_iter = 10000
conv_tol = 1e-08
conv_window = 5
write_hr = .true.
guiding_centres = .true.
gamma_only = .false.
write_u_matrices = .true.
write_xyz = .true.

begin projections
  Zn:l=1
end projections
num_wann = 6
num_bands = 6
exclude_bands = 1-2,9-52
mp_grid = 4 4 4

begin kpoints
  0.0 0.0 0.0 0.015625
  0.0 0.0 0.25 0.015625
  0.0 0.0 -0.5 0.015625
  0.0 0.0 -0.25 0.015625
  0.0 0.25 0.0 0.015625
  0.0 0.25 0.25 0.015625
  0.0 0.25 -0.5 0.015625
  0.0 0.25 -0.25 0.015625
  0.0 -0.5 0.0 0.015625
  0.0 -0.5 0.25 0.015625
  0.0 -0.5 -0.5 0.015625
  0.0 -0.5 -0.25 0.015625
  0.0 -0.25 0.0 0.015625
  0.0 -0.25 0.25 0.015625
  0.0 -0.25 -0.5 0.015625
  0.0 -0.25 -0.25 0.015625
  0.25 0.0 0.0 0.015625
  0.25 0.0 0.25 0.015625
  0.25 0.0 -0.5 0.015625
  0.25 0.0 -0.25 0.015625
  0.25 0.25 0.0 0.015625
  0.25 0.25 0.25 0.015625
  0.25 0.25 -0.5 0.015625
  0.25 0.25 -0.25 0.015625
  0.25 -0.5 0.0 0.015625
  0.25 -0.5 0.25 0.015625
  0.25 -0.5 -0.5 0.015625
  0.25 -0.5 -0.25 0.015625
  0.25 -0.25 0.0 0.015625
  0.25 -0.25 0.25 0.015625
  0.25 -0.25 -0.5 0.015625
  0.25 -0.25 -0.25 0.015625
  -0.5 0.0 0.0 0.015625
  -0.5 0.0 0.25 0.015625
  -0.5 0.0 -0.5 0.015625
  -0.5 0.0 -0.25 0.015625
  -0.5 0.25 0.0 0.015625
  -0.5 0.25 0.25 0.015625
  -0.5 0.25 -0.5 0.015625
  -0.5 0.25 -0.25 0.015625
  -0.5 -0.5 0.0 0.015625
  -0.5 -0.5 0.25 0.015625
  -0.5 -0.5 -0.5 0.015625
  -0.5 -0.5 -0.25 0.015625
  -0.5 -0.25 0.0 0.015625
  -0.5 -0.25 0.25 0.015625
  -0.5 -0.25 -0.5 0.015625
  -0.5 -0.25 -0.25 0.015625
  -0.25 0.0 0.0 0.015625
  -0.25 0.0 0.25 0.015625
  -0.25 0.0 -0.5 0.015625
  -0.25 0.0 -0.25 0.015625
  -0.25 0.25 0.0 0.015625
  -0.25 0.25 0.25 0.015625
  -0.25 0.25 -0.5 0.015625
  -0.25 0.25 -0.25 0.015625
  -0.25 -0.5 0.0 0.015625
  -0.25 -0.5 0.25 0.015625
  -0.25 -0.5 -0.5 0.015625
  -0.25 -0.5 -0.25 0.015625
  -0.25 -0.25 0.0 0.015625
  -0.25 -0.25 0.25 0.015625
  -0.25 -0.25 -0.5 0.015625
  -0.25 -0.25 -0.25 0.015625
end kpoints

begin atoms_frac
  Zn 0.3333 0.6667 0.49999999999999983
  Zn 0.6667 0.3333 0.0
  O 0.3333 0.6667 0.11725
  O 0.6667 0.3333 0.61725
end atoms_frac

begin unit_cell_cart
  ang
  3.2494497038720063 0.0 0.0
  -1.6247248519360031 2.8141059918729785 0.0
  0.0 0.0 5.205748403591109
end unit_cell_cart
