&CONTROL
   calculation      = 'scf'
   verbosity        = 'high'
   outdir           = '/scratch/elinscott/materials_cloud_archive/zno/TMP/'
   prefix           = 'kc'
   pseudo_dir       = '/home/elinscott/code/koopmans/src/koopmans/pseudopotentials/pseudo_dojo_standard_v0.4.1/lda/'
/
&SYSTEM
   ibrav            = 4
   celldm(1)        = 6.14057002564831
   celldm(3)        = 1.60204
   tot_charge       = 0
   tot_magnetization = 0
   ecutwfc          = 50.0
   nspin            = 2
   starting_magnetization(1) = 0.0
   starting_magnetization(2) = 0.0
   ntyp             = 2
   nat              = 4
/
&ELECTRONS
   conv_thr         = 1.04e-07
/
&IONS
/
&CELL
/

ATOMIC_SPECIES
Zn  65.38 Zn.upf
O  15.999 O.upf

K_POINTS automatic
4 4 4  0 0 0

ATOMIC_POSITIONS crystal
Zn  0.3333000000 0.6667000000 0.5000000000
Zn  0.6667000000 0.3333000000 0.0000000000
O  0.3333000000 0.6667000000 0.1172500000
O  0.6667000000 0.3333000000 0.6172500000

