&inputpp
   outdir           = '/scratch/elinscott/materials_cloud_archive/si/postproc/TMP'
   prefix           = 'kc'
   seedname         = 'wann'
   wan_mode         = 'standalone'
/
