num_iter = 10000
conv_tol = 1e-10
conv_window = 5
write_hr = .true.
guiding_centres = .true.
gamma_only = .false.

begin projections
  f=0.25,0.25,0.25:sp3
end projections
num_wann = 4
num_bands = 4
exclude_bands = 5-20
mp_grid = 8 8 8

begin kpoints
  0.0 0.0 0.0 0.001953125
  0.0 0.0 0.125 0.001953125
  0.0 0.0 0.25 0.001953125
  0.0 0.0 0.375 0.001953125
  0.0 0.0 -0.5 0.001953125
  0.0 0.0 -0.375 0.001953125
  0.0 0.0 -0.25 0.001953125
  0.0 0.0 -0.125 0.001953125
  0.0 0.125 0.0 0.001953125
  0.0 0.125 0.125 0.001953125
  0.0 0.125 0.25 0.001953125
  0.0 0.125 0.375 0.001953125
  0.0 0.125 -0.5 0.001953125
  0.0 0.125 -0.375 0.001953125
  0.0 0.125 -0.25 0.001953125
  0.0 0.125 -0.125 0.001953125
  0.0 0.25 0.0 0.001953125
  0.0 0.25 0.125 0.001953125
  0.0 0.25 0.25 0.001953125
  0.0 0.25 0.375 0.001953125
  0.0 0.25 -0.5 0.001953125
  0.0 0.25 -0.375 0.001953125
  0.0 0.25 -0.25 0.001953125
  0.0 0.25 -0.125 0.001953125
  0.0 0.375 0.0 0.001953125
  0.0 0.375 0.125 0.001953125
  0.0 0.375 0.25 0.001953125
  0.0 0.375 0.375 0.001953125
  0.0 0.375 -0.5 0.001953125
  0.0 0.375 -0.375 0.001953125
  0.0 0.375 -0.25 0.001953125
  0.0 0.375 -0.125 0.001953125
  0.0 -0.5 0.0 0.001953125
  0.0 -0.5 0.125 0.001953125
  0.0 -0.5 0.25 0.001953125
  0.0 -0.5 0.375 0.001953125
  0.0 -0.5 -0.5 0.001953125
  0.0 -0.5 -0.375 0.001953125
  0.0 -0.5 -0.25 0.001953125
  0.0 -0.5 -0.125 0.001953125
  0.0 -0.375 0.0 0.001953125
  0.0 -0.375 0.125 0.001953125
  0.0 -0.375 0.25 0.001953125
  0.0 -0.375 0.375 0.001953125
  0.0 -0.375 -0.5 0.001953125
  0.0 -0.375 -0.375 0.001953125
  0.0 -0.375 -0.25 0.001953125
  0.0 -0.375 -0.125 0.001953125
  0.0 -0.25 0.0 0.001953125
  0.0 -0.25 0.125 0.001953125
  0.0 -0.25 0.25 0.001953125
  0.0 -0.25 0.375 0.001953125
  0.0 -0.25 -0.5 0.001953125
  0.0 -0.25 -0.375 0.001953125
  0.0 -0.25 -0.25 0.001953125
  0.0 -0.25 -0.125 0.001953125
  0.0 -0.125 0.0 0.001953125
  0.0 -0.125 0.125 0.001953125
  0.0 -0.125 0.25 0.001953125
  0.0 -0.125 0.375 0.001953125
  0.0 -0.125 -0.5 0.001953125
  0.0 -0.125 -0.375 0.001953125
  0.0 -0.125 -0.25 0.001953125
  0.0 -0.125 -0.125 0.001953125
  0.125 0.0 0.0 0.001953125
  0.125 0.0 0.125 0.001953125
  0.125 0.0 0.25 0.001953125
  0.125 0.0 0.375 0.001953125
  0.125 0.0 -0.5 0.001953125
  0.125 0.0 -0.375 0.001953125
  0.125 0.0 -0.25 0.001953125
  0.125 0.0 -0.125 0.001953125
  0.125 0.125 0.0 0.001953125
  0.125 0.125 0.125 0.001953125
  0.125 0.125 0.25 0.001953125
  0.125 0.125 0.375 0.001953125
  0.125 0.125 -0.5 0.001953125
  0.125 0.125 -0.375 0.001953125
  0.125 0.125 -0.25 0.001953125
  0.125 0.125 -0.125 0.001953125
  0.125 0.25 0.0 0.001953125
  0.125 0.25 0.125 0.001953125
  0.125 0.25 0.25 0.001953125
  0.125 0.25 0.375 0.001953125
  0.125 0.25 -0.5 0.001953125
  0.125 0.25 -0.375 0.001953125
  0.125 0.25 -0.25 0.001953125
  0.125 0.25 -0.125 0.001953125
  0.125 0.375 0.0 0.001953125
  0.125 0.375 0.125 0.001953125
  0.125 0.375 0.25 0.001953125
  0.125 0.375 0.375 0.001953125
  0.125 0.375 -0.5 0.001953125
  0.125 0.375 -0.375 0.001953125
  0.125 0.375 -0.25 0.001953125
  0.125 0.375 -0.125 0.001953125
  0.125 -0.5 0.0 0.001953125
  0.125 -0.5 0.125 0.001953125
  0.125 -0.5 0.25 0.001953125
  0.125 -0.5 0.375 0.001953125
  0.125 -0.5 -0.5 0.001953125
  0.125 -0.5 -0.375 0.001953125
  0.125 -0.5 -0.25 0.001953125
  0.125 -0.5 -0.125 0.001953125
  0.125 -0.375 0.0 0.001953125
  0.125 -0.375 0.125 0.001953125
  0.125 -0.375 0.25 0.001953125
  0.125 -0.375 0.375 0.001953125
  0.125 -0.375 -0.5 0.001953125
  0.125 -0.375 -0.375 0.001953125
  0.125 -0.375 -0.25 0.001953125
  0.125 -0.375 -0.125 0.001953125
  0.125 -0.25 0.0 0.001953125
  0.125 -0.25 0.125 0.001953125
  0.125 -0.25 0.25 0.001953125
  0.125 -0.25 0.375 0.001953125
  0.125 -0.25 -0.5 0.001953125
  0.125 -0.25 -0.375 0.001953125
  0.125 -0.25 -0.25 0.001953125
  0.125 -0.25 -0.125 0.001953125
  0.125 -0.125 0.0 0.001953125
  0.125 -0.125 0.125 0.001953125
  0.125 -0.125 0.25 0.001953125
  0.125 -0.125 0.375 0.001953125
  0.125 -0.125 -0.5 0.001953125
  0.125 -0.125 -0.375 0.001953125
  0.125 -0.125 -0.25 0.001953125
  0.125 -0.125 -0.125 0.001953125
  0.25 0.0 0.0 0.001953125
  0.25 0.0 0.125 0.001953125
  0.25 0.0 0.25 0.001953125
  0.25 0.0 0.375 0.001953125
  0.25 0.0 -0.5 0.001953125
  0.25 0.0 -0.375 0.001953125
  0.25 0.0 -0.25 0.001953125
  0.25 0.0 -0.125 0.001953125
  0.25 0.125 0.0 0.001953125
  0.25 0.125 0.125 0.001953125
  0.25 0.125 0.25 0.001953125
  0.25 0.125 0.375 0.001953125
  0.25 0.125 -0.5 0.001953125
  0.25 0.125 -0.375 0.001953125
  0.25 0.125 -0.25 0.001953125
  0.25 0.125 -0.125 0.001953125
  0.25 0.25 0.0 0.001953125
  0.25 0.25 0.125 0.001953125
  0.25 0.25 0.25 0.001953125
  0.25 0.25 0.375 0.001953125
  0.25 0.25 -0.5 0.001953125
  0.25 0.25 -0.375 0.001953125
  0.25 0.25 -0.25 0.001953125
  0.25 0.25 -0.125 0.001953125
  0.25 0.375 0.0 0.001953125
  0.25 0.375 0.125 0.001953125
  0.25 0.375 0.25 0.001953125
  0.25 0.375 0.375 0.001953125
  0.25 0.375 -0.5 0.001953125
  0.25 0.375 -0.375 0.001953125
  0.25 0.375 -0.25 0.001953125
  0.25 0.375 -0.125 0.001953125
  0.25 -0.5 0.0 0.001953125
  0.25 -0.5 0.125 0.001953125
  0.25 -0.5 0.25 0.001953125
  0.25 -0.5 0.375 0.001953125
  0.25 -0.5 -0.5 0.001953125
  0.25 -0.5 -0.375 0.001953125
  0.25 -0.5 -0.25 0.001953125
  0.25 -0.5 -0.125 0.001953125
  0.25 -0.375 0.0 0.001953125
  0.25 -0.375 0.125 0.001953125
  0.25 -0.375 0.25 0.001953125
  0.25 -0.375 0.375 0.001953125
  0.25 -0.375 -0.5 0.001953125
  0.25 -0.375 -0.375 0.001953125
  0.25 -0.375 -0.25 0.001953125
  0.25 -0.375 -0.125 0.001953125
  0.25 -0.25 0.0 0.001953125
  0.25 -0.25 0.125 0.001953125
  0.25 -0.25 0.25 0.001953125
  0.25 -0.25 0.375 0.001953125
  0.25 -0.25 -0.5 0.001953125
  0.25 -0.25 -0.375 0.001953125
  0.25 -0.25 -0.25 0.001953125
  0.25 -0.25 -0.125 0.001953125
  0.25 -0.125 0.0 0.001953125
  0.25 -0.125 0.125 0.001953125
  0.25 -0.125 0.25 0.001953125
  0.25 -0.125 0.375 0.001953125
  0.25 -0.125 -0.5 0.001953125
  0.25 -0.125 -0.375 0.001953125
  0.25 -0.125 -0.25 0.001953125
  0.25 -0.125 -0.125 0.001953125
  0.375 0.0 0.0 0.001953125
  0.375 0.0 0.125 0.001953125
  0.375 0.0 0.25 0.001953125
  0.375 0.0 0.375 0.001953125
  0.375 0.0 -0.5 0.001953125
  0.375 0.0 -0.375 0.001953125
  0.375 0.0 -0.25 0.001953125
  0.375 0.0 -0.125 0.001953125
  0.375 0.125 0.0 0.001953125
  0.375 0.125 0.125 0.001953125
  0.375 0.125 0.25 0.001953125
  0.375 0.125 0.375 0.001953125
  0.375 0.125 -0.5 0.001953125
  0.375 0.125 -0.375 0.001953125
  0.375 0.125 -0.25 0.001953125
  0.375 0.125 -0.125 0.001953125
  0.375 0.25 0.0 0.001953125
  0.375 0.25 0.125 0.001953125
  0.375 0.25 0.25 0.001953125
  0.375 0.25 0.375 0.001953125
  0.375 0.25 -0.5 0.001953125
  0.375 0.25 -0.375 0.001953125
  0.375 0.25 -0.25 0.001953125
  0.375 0.25 -0.125 0.001953125
  0.375 0.375 0.0 0.001953125
  0.375 0.375 0.125 0.001953125
  0.375 0.375 0.25 0.001953125
  0.375 0.375 0.375 0.001953125
  0.375 0.375 -0.5 0.001953125
  0.375 0.375 -0.375 0.001953125
  0.375 0.375 -0.25 0.001953125
  0.375 0.375 -0.125 0.001953125
  0.375 -0.5 0.0 0.001953125
  0.375 -0.5 0.125 0.001953125
  0.375 -0.5 0.25 0.001953125
  0.375 -0.5 0.375 0.001953125
  0.375 -0.5 -0.5 0.001953125
  0.375 -0.5 -0.375 0.001953125
  0.375 -0.5 -0.25 0.001953125
  0.375 -0.5 -0.125 0.001953125
  0.375 -0.375 0.0 0.001953125
  0.375 -0.375 0.125 0.001953125
  0.375 -0.375 0.25 0.001953125
  0.375 -0.375 0.375 0.001953125
  0.375 -0.375 -0.5 0.001953125
  0.375 -0.375 -0.375 0.001953125
  0.375 -0.375 -0.25 0.001953125
  0.375 -0.375 -0.125 0.001953125
  0.375 -0.25 0.0 0.001953125
  0.375 -0.25 0.125 0.001953125
  0.375 -0.25 0.25 0.001953125
  0.375 -0.25 0.375 0.001953125
  0.375 -0.25 -0.5 0.001953125
  0.375 -0.25 -0.375 0.001953125
  0.375 -0.25 -0.25 0.001953125
  0.375 -0.25 -0.125 0.001953125
  0.375 -0.125 0.0 0.001953125
  0.375 -0.125 0.125 0.001953125
  0.375 -0.125 0.25 0.001953125
  0.375 -0.125 0.375 0.001953125
  0.375 -0.125 -0.5 0.001953125
  0.375 -0.125 -0.375 0.001953125
  0.375 -0.125 -0.25 0.001953125
  0.375 -0.125 -0.125 0.001953125
  -0.5 0.0 0.0 0.001953125
  -0.5 0.0 0.125 0.001953125
  -0.5 0.0 0.25 0.001953125
  -0.5 0.0 0.375 0.001953125
  -0.5 0.0 -0.5 0.001953125
  -0.5 0.0 -0.375 0.001953125
  -0.5 0.0 -0.25 0.001953125
  -0.5 0.0 -0.125 0.001953125
  -0.5 0.125 0.0 0.001953125
  -0.5 0.125 0.125 0.001953125
  -0.5 0.125 0.25 0.001953125
  -0.5 0.125 0.375 0.001953125
  -0.5 0.125 -0.5 0.001953125
  -0.5 0.125 -0.375 0.001953125
  -0.5 0.125 -0.25 0.001953125
  -0.5 0.125 -0.125 0.001953125
  -0.5 0.25 0.0 0.001953125
  -0.5 0.25 0.125 0.001953125
  -0.5 0.25 0.25 0.001953125
  -0.5 0.25 0.375 0.001953125
  -0.5 0.25 -0.5 0.001953125
  -0.5 0.25 -0.375 0.001953125
  -0.5 0.25 -0.25 0.001953125
  -0.5 0.25 -0.125 0.001953125
  -0.5 0.375 0.0 0.001953125
  -0.5 0.375 0.125 0.001953125
  -0.5 0.375 0.25 0.001953125
  -0.5 0.375 0.375 0.001953125
  -0.5 0.375 -0.5 0.001953125
  -0.5 0.375 -0.375 0.001953125
  -0.5 0.375 -0.25 0.001953125
  -0.5 0.375 -0.125 0.001953125
  -0.5 -0.5 0.0 0.001953125
  -0.5 -0.5 0.125 0.001953125
  -0.5 -0.5 0.25 0.001953125
  -0.5 -0.5 0.375 0.001953125
  -0.5 -0.5 -0.5 0.001953125
  -0.5 -0.5 -0.375 0.001953125
  -0.5 -0.5 -0.25 0.001953125
  -0.5 -0.5 -0.125 0.001953125
  -0.5 -0.375 0.0 0.001953125
  -0.5 -0.375 0.125 0.001953125
  -0.5 -0.375 0.25 0.001953125
  -0.5 -0.375 0.375 0.001953125
  -0.5 -0.375 -0.5 0.001953125
  -0.5 -0.375 -0.375 0.001953125
  -0.5 -0.375 -0.25 0.001953125
  -0.5 -0.375 -0.125 0.001953125
  -0.5 -0.25 0.0 0.001953125
  -0.5 -0.25 0.125 0.001953125
  -0.5 -0.25 0.25 0.001953125
  -0.5 -0.25 0.375 0.001953125
  -0.5 -0.25 -0.5 0.001953125
  -0.5 -0.25 -0.375 0.001953125
  -0.5 -0.25 -0.25 0.001953125
  -0.5 -0.25 -0.125 0.001953125
  -0.5 -0.125 0.0 0.001953125
  -0.5 -0.125 0.125 0.001953125
  -0.5 -0.125 0.25 0.001953125
  -0.5 -0.125 0.375 0.001953125
  -0.5 -0.125 -0.5 0.001953125
  -0.5 -0.125 -0.375 0.001953125
  -0.5 -0.125 -0.25 0.001953125
  -0.5 -0.125 -0.125 0.001953125
  -0.375 0.0 0.0 0.001953125
  -0.375 0.0 0.125 0.001953125
  -0.375 0.0 0.25 0.001953125
  -0.375 0.0 0.375 0.001953125
  -0.375 0.0 -0.5 0.001953125
  -0.375 0.0 -0.375 0.001953125
  -0.375 0.0 -0.25 0.001953125
  -0.375 0.0 -0.125 0.001953125
  -0.375 0.125 0.0 0.001953125
  -0.375 0.125 0.125 0.001953125
  -0.375 0.125 0.25 0.001953125
  -0.375 0.125 0.375 0.001953125
  -0.375 0.125 -0.5 0.001953125
  -0.375 0.125 -0.375 0.001953125
  -0.375 0.125 -0.25 0.001953125
  -0.375 0.125 -0.125 0.001953125
  -0.375 0.25 0.0 0.001953125
  -0.375 0.25 0.125 0.001953125
  -0.375 0.25 0.25 0.001953125
  -0.375 0.25 0.375 0.001953125
  -0.375 0.25 -0.5 0.001953125
  -0.375 0.25 -0.375 0.001953125
  -0.375 0.25 -0.25 0.001953125
  -0.375 0.25 -0.125 0.001953125
  -0.375 0.375 0.0 0.001953125
  -0.375 0.375 0.125 0.001953125
  -0.375 0.375 0.25 0.001953125
  -0.375 0.375 0.375 0.001953125
  -0.375 0.375 -0.5 0.001953125
  -0.375 0.375 -0.375 0.001953125
  -0.375 0.375 -0.25 0.001953125
  -0.375 0.375 -0.125 0.001953125
  -0.375 -0.5 0.0 0.001953125
  -0.375 -0.5 0.125 0.001953125
  -0.375 -0.5 0.25 0.001953125
  -0.375 -0.5 0.375 0.001953125
  -0.375 -0.5 -0.5 0.001953125
  -0.375 -0.5 -0.375 0.001953125
  -0.375 -0.5 -0.25 0.001953125
  -0.375 -0.5 -0.125 0.001953125
  -0.375 -0.375 0.0 0.001953125
  -0.375 -0.375 0.125 0.001953125
  -0.375 -0.375 0.25 0.001953125
  -0.375 -0.375 0.375 0.001953125
  -0.375 -0.375 -0.5 0.001953125
  -0.375 -0.375 -0.375 0.001953125
  -0.375 -0.375 -0.25 0.001953125
  -0.375 -0.375 -0.125 0.001953125
  -0.375 -0.25 0.0 0.001953125
  -0.375 -0.25 0.125 0.001953125
  -0.375 -0.25 0.25 0.001953125
  -0.375 -0.25 0.375 0.001953125
  -0.375 -0.25 -0.5 0.001953125
  -0.375 -0.25 -0.375 0.001953125
  -0.375 -0.25 -0.25 0.001953125
  -0.375 -0.25 -0.125 0.001953125
  -0.375 -0.125 0.0 0.001953125
  -0.375 -0.125 0.125 0.001953125
  -0.375 -0.125 0.25 0.001953125
  -0.375 -0.125 0.375 0.001953125
  -0.375 -0.125 -0.5 0.001953125
  -0.375 -0.125 -0.375 0.001953125
  -0.375 -0.125 -0.25 0.001953125
  -0.375 -0.125 -0.125 0.001953125
  -0.25 0.0 0.0 0.001953125
  -0.25 0.0 0.125 0.001953125
  -0.25 0.0 0.25 0.001953125
  -0.25 0.0 0.375 0.001953125
  -0.25 0.0 -0.5 0.001953125
  -0.25 0.0 -0.375 0.001953125
  -0.25 0.0 -0.25 0.001953125
  -0.25 0.0 -0.125 0.001953125
  -0.25 0.125 0.0 0.001953125
  -0.25 0.125 0.125 0.001953125
  -0.25 0.125 0.25 0.001953125
  -0.25 0.125 0.375 0.001953125
  -0.25 0.125 -0.5 0.001953125
  -0.25 0.125 -0.375 0.001953125
  -0.25 0.125 -0.25 0.001953125
  -0.25 0.125 -0.125 0.001953125
  -0.25 0.25 0.0 0.001953125
  -0.25 0.25 0.125 0.001953125
  -0.25 0.25 0.25 0.001953125
  -0.25 0.25 0.375 0.001953125
  -0.25 0.25 -0.5 0.001953125
  -0.25 0.25 -0.375 0.001953125
  -0.25 0.25 -0.25 0.001953125
  -0.25 0.25 -0.125 0.001953125
  -0.25 0.375 0.0 0.001953125
  -0.25 0.375 0.125 0.001953125
  -0.25 0.375 0.25 0.001953125
  -0.25 0.375 0.375 0.001953125
  -0.25 0.375 -0.5 0.001953125
  -0.25 0.375 -0.375 0.001953125
  -0.25 0.375 -0.25 0.001953125
  -0.25 0.375 -0.125 0.001953125
  -0.25 -0.5 0.0 0.001953125
  -0.25 -0.5 0.125 0.001953125
  -0.25 -0.5 0.25 0.001953125
  -0.25 -0.5 0.375 0.001953125
  -0.25 -0.5 -0.5 0.001953125
  -0.25 -0.5 -0.375 0.001953125
  -0.25 -0.5 -0.25 0.001953125
  -0.25 -0.5 -0.125 0.001953125
  -0.25 -0.375 0.0 0.001953125
  -0.25 -0.375 0.125 0.001953125
  -0.25 -0.375 0.25 0.001953125
  -0.25 -0.375 0.375 0.001953125
  -0.25 -0.375 -0.5 0.001953125
  -0.25 -0.375 -0.375 0.001953125
  -0.25 -0.375 -0.25 0.001953125
  -0.25 -0.375 -0.125 0.001953125
  -0.25 -0.25 0.0 0.001953125
  -0.25 -0.25 0.125 0.001953125
  -0.25 -0.25 0.25 0.001953125
  -0.25 -0.25 0.375 0.001953125
  -0.25 -0.25 -0.5 0.001953125
  -0.25 -0.25 -0.375 0.001953125
  -0.25 -0.25 -0.25 0.001953125
  -0.25 -0.25 -0.125 0.001953125
  -0.25 -0.125 0.0 0.001953125
  -0.25 -0.125 0.125 0.001953125
  -0.25 -0.125 0.25 0.001953125
  -0.25 -0.125 0.375 0.001953125
  -0.25 -0.125 -0.5 0.001953125
  -0.25 -0.125 -0.375 0.001953125
  -0.25 -0.125 -0.25 0.001953125
  -0.25 -0.125 -0.125 0.001953125
  -0.125 0.0 0.0 0.001953125
  -0.125 0.0 0.125 0.001953125
  -0.125 0.0 0.25 0.001953125
  -0.125 0.0 0.375 0.001953125
  -0.125 0.0 -0.5 0.001953125
  -0.125 0.0 -0.375 0.001953125
  -0.125 0.0 -0.25 0.001953125
  -0.125 0.0 -0.125 0.001953125
  -0.125 0.125 0.0 0.001953125
  -0.125 0.125 0.125 0.001953125
  -0.125 0.125 0.25 0.001953125
  -0.125 0.125 0.375 0.001953125
  -0.125 0.125 -0.5 0.001953125
  -0.125 0.125 -0.375 0.001953125
  -0.125 0.125 -0.25 0.001953125
  -0.125 0.125 -0.125 0.001953125
  -0.125 0.25 0.0 0.001953125
  -0.125 0.25 0.125 0.001953125
  -0.125 0.25 0.25 0.001953125
  -0.125 0.25 0.375 0.001953125
  -0.125 0.25 -0.5 0.001953125
  -0.125 0.25 -0.375 0.001953125
  -0.125 0.25 -0.25 0.001953125
  -0.125 0.25 -0.125 0.001953125
  -0.125 0.375 0.0 0.001953125
  -0.125 0.375 0.125 0.001953125
  -0.125 0.375 0.25 0.001953125
  -0.125 0.375 0.375 0.001953125
  -0.125 0.375 -0.5 0.001953125
  -0.125 0.375 -0.375 0.001953125
  -0.125 0.375 -0.25 0.001953125
  -0.125 0.375 -0.125 0.001953125
  -0.125 -0.5 0.0 0.001953125
  -0.125 -0.5 0.125 0.001953125
  -0.125 -0.5 0.25 0.001953125
  -0.125 -0.5 0.375 0.001953125
  -0.125 -0.5 -0.5 0.001953125
  -0.125 -0.5 -0.375 0.001953125
  -0.125 -0.5 -0.25 0.001953125
  -0.125 -0.5 -0.125 0.001953125
  -0.125 -0.375 0.0 0.001953125
  -0.125 -0.375 0.125 0.001953125
  -0.125 -0.375 0.25 0.001953125
  -0.125 -0.375 0.375 0.001953125
  -0.125 -0.375 -0.5 0.001953125
  -0.125 -0.375 -0.375 0.001953125
  -0.125 -0.375 -0.25 0.001953125
  -0.125 -0.375 -0.125 0.001953125
  -0.125 -0.25 0.0 0.001953125
  -0.125 -0.25 0.125 0.001953125
  -0.125 -0.25 0.25 0.001953125
  -0.125 -0.25 0.375 0.001953125
  -0.125 -0.25 -0.5 0.001953125
  -0.125 -0.25 -0.375 0.001953125
  -0.125 -0.25 -0.25 0.001953125
  -0.125 -0.25 -0.125 0.001953125
  -0.125 -0.125 0.0 0.001953125
  -0.125 -0.125 0.125 0.001953125
  -0.125 -0.125 0.25 0.001953125
  -0.125 -0.125 0.375 0.001953125
  -0.125 -0.125 -0.5 0.001953125
  -0.125 -0.125 -0.375 0.001953125
  -0.125 -0.125 -0.25 0.001953125
  -0.125 -0.125 -0.125 0.001953125
end kpoints

begin atoms_frac
  Si 0.0 0.0 0.0
  Si 0.24999999999999994 0.24999999999999994 0.24999999999999994
end atoms_frac

begin unit_cell_cart
  ang
  -2.7152611851241253 0.0 2.7152611851241253
  0.0 2.7152611851241253 2.7152611851241253
  -2.7152611851241253 2.7152611851241253 0.0
end unit_cell_cart
