&CONTROL
   calculation      = 'nscf'
   verbosity        = 'high'
   outdir           = '/scratch/elinscott/materials_cloud_archive/si/init/TMP/'
   prefix           = 'kc'
   pseudo_dir       = '/home/elinscott/code/koopmans/src/koopmans/pseudopotentials/sg15_v1.2/pbe/'
/
&SYSTEM
   ibrav            = 2
   celldm(1)        = 10.262200042863787
   nbnd             = 20
   tot_charge       = 0
   ecutwfc          = 60.0
   nosym            = .true.
   noinv            = .true.
   nspin            = 1
   ntyp             = 1
   nat              = 2
/
&ELECTRONS
   conv_thr         = 1.6e-08
/
&IONS
/
&CELL
/

ATOMIC_SPECIES
Si 28.085 Si_ONCV_PBE-1.2.upf

K_POINTS automatic
4 4 4  0 0 0

ATOMIC_POSITIONS crystal
Si -0.0000000000 0.0000000000 -0.0000000000 
Si 0.2500000000 0.2500000000 0.2500000000 

