&CONTROL
   calculation      = 'bands'
   verbosity        = 'high'
   outdir           = '/scratch/elinscott/materials_cloud_archive/si/postproc/TMP/'
   prefix           = 'kc_bands'
   pseudo_dir       = '/home/elinscott/code/koopmans/src/koopmans/pseudopotentials/sg15_v1.2/pbe/'
/
&SYSTEM
   ibrav            = 2
   celldm(1)        = 10.262200042863787
   nbnd             = 20
   tot_charge       = 0
   ecutwfc          = 60.0
   nspin            = 1
   ntyp             = 1
   nat              = 2
/
&ELECTRONS
   conv_thr         = 1.6e-08
/
&IONS
/
&CELL
/

ATOMIC_SPECIES
Si 28.085 Si_ONCV_PBE-1.2.upf

K_POINTS crystal_b
74
0.00000000000000 0.00000000000000 0.00000000000000 0
0.04545454545455 0.00000000000000 0.04545454545455 0
0.09090909090909 0.00000000000000 0.09090909090909 0
0.13636363636364 0.00000000000000 0.13636363636364 0
0.18181818181818 0.00000000000000 0.18181818181818 0
0.22727272727273 0.00000000000000 0.22727272727273 0
0.27272727272727 0.00000000000000 0.27272727272727 0
0.31818181818182 0.00000000000000 0.31818181818182 0
0.36363636363636 0.00000000000000 0.36363636363636 0
0.40909090909091 0.00000000000000 0.40909090909091 0
0.45454545454545 0.00000000000000 0.45454545454545 0
0.50000000000000 0.00000000000000 0.50000000000000 0
0.50000000000000 0.05000000000000 0.55000000000000 0
0.50000000000000 0.10000000000000 0.60000000000000 0
0.50000000000000 0.15000000000000 0.65000000000000 0
0.50000000000000 0.20000000000000 0.70000000000000 0
0.50000000000000 0.25000000000000 0.75000000000000 0
0.45833333333333 0.29166666666667 0.75000000000000 0
0.41666666666667 0.33333333333333 0.75000000000000 0
0.37500000000000 0.37500000000000 0.75000000000000 0
0.34375000000000 0.34375000000000 0.68750000000000 0
0.31250000000000 0.31250000000000 0.62500000000000 0
0.28125000000000 0.28125000000000 0.56250000000000 0
0.25000000000000 0.25000000000000 0.50000000000000 0
0.21875000000000 0.21875000000000 0.43750000000000 0
0.18750000000000 0.18750000000000 0.37500000000000 0
0.15625000000000 0.15625000000000 0.31250000000000 0
0.12500000000000 0.12500000000000 0.25000000000000 0
0.09375000000000 0.09375000000000 0.18750000000000 0
0.06250000000000 0.06250000000000 0.12500000000000 0
0.03125000000000 0.03125000000000 0.06250000000000 0
0.00000000000000 0.00000000000000 0.00000000000000 0
0.05000000000000 0.05000000000000 0.05000000000000 0
0.10000000000000 0.10000000000000 0.10000000000000 0
0.15000000000000 0.15000000000000 0.15000000000000 0
0.20000000000000 0.20000000000000 0.20000000000000 0
0.25000000000000 0.25000000000000 0.25000000000000 0
0.30000000000000 0.30000000000000 0.30000000000000 0
0.35000000000000 0.35000000000000 0.35000000000000 0
0.40000000000000 0.40000000000000 0.40000000000000 0
0.45000000000000 0.45000000000000 0.45000000000000 0
0.50000000000000 0.50000000000000 0.50000000000000 0
0.51785714285714 0.46428571428571 0.51785714285714 0
0.53571428571429 0.42857142857143 0.53571428571429 0
0.55357142857143 0.39285714285714 0.55357142857143 0
0.57142857142857 0.35714285714286 0.57142857142857 0
0.58928571428571 0.32142857142857 0.58928571428571 0
0.60714285714286 0.28571428571429 0.60714285714286 0
0.62500000000000 0.25000000000000 0.62500000000000 0
0.59375000000000 0.25000000000000 0.65625000000000 0
0.56250000000000 0.25000000000000 0.68750000000000 0
0.53125000000000 0.25000000000000 0.71875000000000 0
0.50000000000000 0.25000000000000 0.75000000000000 0
0.50000000000000 0.28125000000000 0.71875000000000 0
0.50000000000000 0.31250000000000 0.68750000000000 0
0.50000000000000 0.34375000000000 0.65625000000000 0
0.50000000000000 0.37500000000000 0.62500000000000 0
0.50000000000000 0.40625000000000 0.59375000000000 0
0.50000000000000 0.43750000000000 0.56250000000000 0
0.50000000000000 0.46875000000000 0.53125000000000 0
0.50000000000000 0.50000000000000 0.50000000000000 0
0.48437500000000 0.48437500000000 0.53125000000000 0
0.46875000000000 0.46875000000000 0.56250000000000 0
0.45312500000000 0.45312500000000 0.59375000000000 0
0.43750000000000 0.43750000000000 0.62500000000000 0
0.42187500000000 0.42187500000000 0.65625000000000 0
0.40625000000000 0.40625000000000 0.68750000000000 0
0.39062500000000 0.39062500000000 0.71875000000000 0
0.37500000000000 0.37500000000000 0.75000000000000 0
0.62500000000000 0.25000000000000 0.62500000000000 0
0.59375000000000 0.18750000000000 0.59375000000000 0
0.56250000000000 0.12500000000000 0.56250000000000 0
0.53125000000000 0.06250000000000 0.53125000000000 0
0.50000000000000 0.00000000000000 0.50000000000000 0

ATOMIC_POSITIONS crystal
Si -0.0000000000 0.0000000000 -0.0000000000 
Si 0.2500000000 0.2500000000 0.2500000000 

