&inputpp
   outdir           = '/scratch/elinscott/materials_cloud_archive/si/init/TMP'
   prefix           = 'kc'
   seedname         = 'wann'
   wan_mode         = 'wannier2kcp'
/
