num_iter = 10000
conv_tol = 1e-08
conv_window = 5
write_hr = .true.
guiding_centres = .true.
gamma_only = .false.
write_u_matrices = .true.
write_xyz = .true.
bands_plot = .true.

begin projections
  O:l=0
end projections
num_wann = 2
num_bands = 2
exclude_bands = 1-8,11-52
mp_grid = 2 2 2

begin kpoints
  0.0 0.0 0.0 0.125
  0.0 0.0 -0.5 0.125
  0.0 -0.5 0.0 0.125
  0.0 -0.5 -0.5 0.125
  -0.5 0.0 0.0 0.125
  -0.5 0.0 -0.5 0.125
  -0.5 -0.5 0.0 0.125
  -0.5 -0.5 -0.5 0.125
end kpoints

begin kpoint_path
   A  0.00000   0.00000   0.50000 L  0.50000   0.00000   0.50000
   L  0.50000   0.00000   0.50000 M  0.50000   0.00000   0.00000
   M  0.50000   0.00000   0.00000 G  0.00000   0.00000   0.00000
   G  0.00000   0.00000   0.00000 A  0.00000   0.00000   0.50000
   A  0.00000   0.00000   0.50000 H  0.33333   0.33333   0.50000
   H  0.33333   0.33333   0.50000 K  0.33333   0.33333   0.00000
end kpoint_path

begin atoms_frac
  Zn 0.3333 0.6667 0.49999999999999983
  Zn 0.6667 0.3333 0.0
  O 0.3333 0.6667 0.11725
  O 0.6667 0.3333 0.61725
end atoms_frac

begin unit_cell_cart
  ang
  3.2494497038720063 0.0 0.0
  -1.6247248519360031 2.8141059918729785 0.0
  0.0 0.0 5.205748403591109
end unit_cell_cart
