&inputpp
   outdir           = '/scratch/elinscott/materials_cloud_archive/zno/coarse_grid/TMP'
   prefix           = 'kc'
   seedname         = 'wann'
   wan_mode         = 'standalone'
   spin_component   = 'up'
/
